c preprocessed version of celar09, 76 vertices, 421 edges
p td 76 421
1 0
62 0
58 0
57 0
1 2
1 32
33 1
62 1
38 1
3 2
16 2
2 18
2 19
2 42
2 23
2 31
2 45
2 26
2 40
2 39
2 30
2 43
2 25
2 52
2 49
27 2
29 2
33 2
32 2
24 2
37 2
48 2
38 2
51 2
53 2
4 3
3 17
20 3
22 3
3 18
3 19
3 42
3 45
3 46
3 43
3 47
3 49
3 50
3 23
3 44
15 3
28 3
27 3
29 3
48 3
38 3
68 3
69 3
51 3
5 4
16 4
4 22
4 18
4 23
4 44
4 43
4 50
4 39
4 21
4 41
15 4
24 4
37 4
38 4
5 6
5 18
5 22
5 17
5 44
36 5
54 5
6 7
6 8
10 6
66 6
8 7
10 7
66 7
65 7
9 8
11 8
13 8
10 8
10 9
13 9
9 11
12 9
10 11
10 12
66 10
12 11
13 11
14 13
61 13
15 14
14 28
61 14
15 16
15 18
15 19
15 20
15 39
15 21
15 22
15 23
15 42
15 41
15 44
15 45
15 46
15 47
15 40
15 26
15 43
15 49
15 50
28 15
24 15
37 15
48 15
38 15
51 15
53 15
16 17
16 26
16 20
16 45
16 40
16 39
16 46
16 43
16 25
16 49
16 21
16 50
16 41
48 16
38 16
51 16
18 17
28 17
20 17
39 17
19 17
22 17
23 17
42 17
44 17
45 17
46 17
43 17
17 52
17 49
17 50
27 17
29 17
24 17
37 17
48 17
38 17
68 17
69 17
51 17
18 19
22 18
18 42
18 23
18 44
24 18
37 18
53 18
20 19
19 21
19 42
19 23
19 41
19 43
24 19
37 19
48 19
38 19
51 19
20 21
20 39
20 42
20 45
20 46
20 43
20 49
20 50
20 40
20 47
20 41
48 20
38 20
51 20
22 21
39 21
40 21
42 21
44 21
47 21
46 21
21 41
48 21
38 21
51 21
22 23
22 44
22 41
38 22
24 23
42 23
23 44
37 23
38 23
24 25
24 42
24 41
24 44
24 37
48 24
38 24
36 24
54 24
26 25
31 25
30 25
25 52
32 25
37 25
38 25
27 26
26 39
31 26
26 30
32 26
38 26
27 28
27 30
27 29
38 27
68 27
69 27
55 27
29 28
68 28
69 28
29 30
38 29
68 29
69 29
55 29
31 30
34 30
35 30
33 30
32 30
38 30
32 31
38 31
51 31
53 31
33 32
38 32
33 34
33 35
34 35
36 34
54 34
53 34
36 35
54 35
53 35
36 37
36 55
36 54
36 56
53 36
38 37
37 41
37 42
37 44
48 37
54 37
38 39
38 42
38 41
38 40
38 47
38 46
38 43
38 44
38 45
38 49
38 50
48 38
38 51
38 68
38 69
53 38
40 39
39 41
48 39
40 41
40 47
48 40
51 40
42 41
44 41
47 41
48 41
51 41
42 43
48 42
51 42
44 43
46 43
45 43
43 49
43 50
48 43
45 44
44 49
45 46
48 45
45 49
45 50
46 47
46 49
46 50
48 46
51 46
48 47
51 47
48 49
48 50
48 51
48 68
48 69
49 50
51 52
68 51
69 51
53 51
53 52
53 54
55 53
53 56
54 55
54 56
55 56
56 57
56 64
56 67
56 63
57 58
64 57
67 57
57 63
58 59
58 62
63 58
60 59
62 59
61 60
64 63
67 63
64 65
64 66
64 67
66 65
67 65
67 66
68 69
70 73
70 71
70 59
70 72
70 60
70 75
70 74
71 73
71 59
71 72
71 60
71 75
71 74
72 73
72 60
72 75
72 74
72 61
73 10
73 12
73 75
73 74
74 75
74 7
74 10
74 60
74 59
74 62
74 58
74 65
74 67
74 63
74 12
74 61
75 60
75 61
